
 102   30
  10   10   10   10   10   10   10   10   10   10   10   10   10   10   10   10   10   10   10   10   10   10   10   10   10   10   10   10   10   10

   0   0   0   0   0   0   0   0   0   0   0   0   0   0   0   0   0   0   0   0   0   0   0   0   0   0   0   0   0   0   0  29 2 3 4 5 6 7 8 9 10 11 12 13 15 16 17 18 19 20 21 22 24 26 31 33 35 37 41 43 44 
   5   0   0   1   0   0   0   0   0   0   0   0   0   0   0   0   0   0   0   3   1   1   0   0   0   0   0   0   0   0   1  13 101 71 69 66 59 57 51 40 38 34 30 25 23 
  10   0   0   0   0   1   0   0   0   0   0   0   0   0   0   0   0   0   0   0   4   0   0   0   0   0   0   0   4   0   0  17 101 99 94 71 70 69 64 61 59 58 55 53 51 49 42 36 29 
   6   0   0   0   2   6   1   0   0   0   0   0   1   1   0   0   0   0   0   0   0   6   2   0   0   0   0   0   0   0   7   9 71 70 69 66 62 47 36 23 14 
   5   2   0   0   0   0   1   0   1   0   0   0   0   0   0   0   0   0   0   0   8   9   0   0   0   0   0   0   0   0   0  12 101 97 71 70 67 66 63 57 52 51 40 23 
   3   0   1   0   0   0   0   2   0   0   0   0   7   0   0   0   0   0   0   0   0   4   0   0   1   0   0   0   0   0   0  15 101 100 99 93 69 64 63 62 61 59 55 52 51 47 46 
   9   0   0   7   0   0   0   0   5   0   0   1   0   0   0   0   0   0   0   0   0   0   0   0   0   0   0   0   0   0   0  15 98 97 96 93 90 71 70 69 64 60 59 58 56 52 27 
   5   0   0   0   0   0   0   0   0   0   0   0   0   0   0   0   0   0   0   0   0   0   0   0   0   0   0   0   0   0   0  14 100 99 95 93 69 65 59 58 52 51 50 49 47 46 
  10   0   0   0   0   0   0   0   0   0   0   7   0   0   0   0   0   0   0   0   0   0   0   0   0   0   1   0   0   0   0  14 101 96 94 93 70 69 67 65 59 57 55 52 39 29 
   4   6   0   7   5   7   0   3   0   0   2   0   0   0   0   0   4   2   0   0   7   6   0   0   0   0   6   0   0   2   0  18 101 100 99 98 97 94 93 69 66 64 63 60 59 57 55 54 52 46 
   3   0   0   0   0   0   0   0   0   0   0   0   0   0   0   0   0   0   0   0   0   0   0   0   0   0   0   0   0   0   5  19 101 100 98 96 94 87 86 79 71 69 67 66 63 60 57 56 55 52 45 
   6   0   7   0   0   0   0   0   0   0   0   0   0   0   0   0   0   0   0   0   0   0   0   0   0   0   0   0   0   0   0  14 98 97 96 94 93 65 64 63 61 59 57 55 52 32 
   5   0   0   0   0   0  10   0   9   0   0   0   7   0   0   0   0   0   1   0   0   0   4   0   0   0   0   0   0   0   0   9 98 94 71 69 57 54 50 49 23 
   3   5   0   0   0   0   0   0   0   0   5   0   0   0   1   0   0   0   0   0   0   8   0   0   0   0   0   0   0   0   0  18 101 100 99 98 96 94 93 92 90 89 78 68 65 60 54 50 49 48 
  10   0   0   0   0   0   0   0   0   0   0   0   0   0   0   0   0   0   0   0   7   0   0   0   0   1   0   0   0   0   2  14 101 100 99 97 93 86 71 69 63 59 56 55 52 47 
   8   0   0   0   0   7   0   3   0   0   0   8   4   0   7   0   0   0   0   5   0   7   0   0   0   0   4   0   8   0   0   8 101 90 86 60 56 49 47 28 
   4   0   5   0   0   6   8   0   0   0   0   0   0   0   0   0   0   0   0   0   0   0   0   0   0   0   0   0   0   0   0  14 101 98 97 94 90 88 85 69 67 60 59 55 54 42 
   2   0   0   0   0   0   0   0   0   0   0   0   0   0   9   0   0   0   0   0   0   1   0   0   4   0   0   0   0   6   8  10 99 96 93 86 67 66 63 52 48 47 
   5   0   0   0   0   0   0   0   0   2   6   0   0   0   0   0   0   0   0   4   0   0   0   0   0   0   0   1   0   0   0  13 99 96 94 92 91 89 88 70 68 64 55 50 49 
   6   0   7   0   5   0   0   0   0   0   0   0   0   0   0   0   0   0   0   5   0   0   0   0   0  10   0   6   0   0   9  13 100 99 96 94 93 90 86 70 63 61 59 52 48 
   8   0   0   0   0   0   0   0   0   0   0   0   0   0   8   0   0   0   0   0   0   0   0   0   0   7   0   0   0   0   0  13 100 99 97 95 94 90 88 86 80 65 59 54 52 
   5   0   0   7   0   0   0   0   0   0   0   0   0   0   0   0   0   0   0   0   0   0   0   0   0   0   0   0   0   0   0   8 93 90 86 85 65 52 51 47 
  10   0   0   0   0   0   0   5   0   0  10   0   0   0   0   0   0   0   5   0   0   0   0   0   0   0   0   0   0   0   9  14 100 99 96 93 90 88 86 82 79 68 64 60 56 55 
   8   0   0   0   0   0   0   0   4   4   0   6   0   0   0   0   0   0   0   0   0   0   0   0   6   0   0   0   5   0   0  14 101 99 98 96 92 91 90 89 86 85 74 64 55 54 
   1   0   0   0   5   4   0   8   0   0   0   0   0   0   0   0   0   0   7   0   0   0   0   0   0   7   0   0   0   0   4  12 98 96 95 90 86 85 78 76 68 63 58 47 
   4   0   0   0   0   0   0   0   7   0   0   0   0   0   0   0   0   2   0   0   0   0   0   0   0   0   0   0   0   3   0   9 101 99 93 91 90 88 86 54 52 
  10   0   0   0   0   0   0   0   0   5   0   0   0   0   0   2   0   0   0   0   0   0   0   0   0   0   7   0   0   0   0   8 99 94 83 68 65 55 54 50 
   6   0   0   0   0   0  10   0   3   0   0   0   7   0   0   0   5   8   0   0   0   0   0   0   0   0   0   0   0   0   5  14 100 98 96 93 91 88 87 85 82 80 79 75 69 52 
  10   4   0   0   0   0   0   0   0   0   0   0   0   0   0   0   5   8   0   0   0   0   0   0   0   0   0   0   0   0   6  10 100 98 97 90 86 78 68 60 56 54 
   3   0   0   0   0   0   0   0   0   0   7   0   0   0   0   0   0   0   0   0   0   0   0   0   0   0   0   0  10   0   7  17 99 96 94 92 91 90 86 85 82 79 78 76 75 74 70 63 60 
   5   0   7   4   0   0   0   0   0   0   0   0   0   6   0   0   0   8   9   0   0   0   0   0   0   0   0   0   0   0   0  14 97 93 92 90 89 88 86 85 82 76 67 66 64 60 
   2   0   0   0   0   0   0   0   0   0   0   0   0   0   0   0   0   0   0   0   0   0   4   0   4   0   0   5   0   0   0  14 101 100 95 91 89 86 85 83 80 78 76 74 73 54 
   1   0   3   0   0   0   0   0   0   0   0   8   0   0   0   0   0   0   0   0   0   0   0   1   0   0   0   0   0   0   0  13 94 93 91 90 88 86 83 80 78 77 76 68 54 
   3   0   9   0   0   0   8   0   0   4   0   0   0   0   0   0   0   7   0   0   0   0   0   6   0   0   0   0   0   0   0  12 100 97 96 93 91 90 87 86 79 75 72 52 
   4   0   0   0   0   0   0   6   0   0   0   0   0   0   0   0   0   0   0   0   7   0  10   0   8   0   0   0   0   0   0  14 101 100 97 90 89 88 87 85 81 77 75 73 69 59 
  10   0   0   0   0   0   0   0   0   0   0   0   0   0   0   0   0   0   0   0   0   0   0   0   0   0   0   0   0   0   0  12 97 96 93 90 89 86 83 75 73 68 63 57 
   3   0   0   0   0   0   0   0   8   0   0   9   0   0   0   2   0   0   0   0   5   0   6   0   5   0   0   0   0   9   0  11 98 95 88 86 78 77 76 73 68 63 54 
   2   0   0   0   5   0   0   0   0   0   0   0   0   0   5  10   0   0   0   0   0   0   0   0   0   0   0   0   0   5   0  19 98 96 95 93 92 90 89 88 86 85 84 83 81 80 77 76 75 73 72 
   8   0   0   0   7   6   0   0   9   0   0   0   0   0   0   0   0   5   0   0   0   0   0   6   0   0   0   7   0   0   0   8 99 97 95 90 88 85 60 54 
   5   0   0   0   0   8   0   0   0   0   4   0   0   0   0   0   0   3   0   0   0   0   0   0   0   0   0   0   0   0   0   5 86 83 68 65 47 
   6   0   0   0   0   0   0   0   0  10   0   0   0   0   0   0   0   0   3   0   0  10   0   6   0   0   0   0   0   0   0  15 101 100 99 94 92 90 87 84 82 79 78 75 74 73 63 
   2   0   0   0   0   0   0   6   7   0   0   0   0   0   0   0   0   9   8   0   0   5   0   0   7   0   0   0   2   0   0   9 95 93 91 86 82 81 79 72 52 
   7   0   0   0   0   0   0   0   0   0   7   0   0   0   0   0   0   0   0   0   0   0   0   0   0   0   0   0   8   0   0  12 98 94 90 88 87 82 81 79 76 74 64 60 
   2   0   0   0   0   0   0   0   0   0   0   0   6   0   0   0   0   0   0   0   0   0   0   6   8   0   0   0   6   0   0  15 97 94 93 92 89 82 81 80 79 78 77 76 73 72 68 
   4   0   0   0   0   0   0   0   0   0   0   0   0   0   0   0   0   0   0   0   0   0   0   0   0   0   0   0   0   0   0  12 97 93 90 89 88 85 82 80 76 74 73 64 
   9   0   0   0   0   0   0   0   0   0   0   0   0   6   0   0   0   0   0   0   0   0   0   0   4   0   0   0   0   0   0  11 96 90 86 85 84 83 82 76 75 72 70 
   8   0   0   0   0   0   0   0   6   0   0   0   0   0   0   0   4   0   0   0   0   9   0   0   6   0   3   6   0   0   0   5 94 88 80 77 54 
   4   0   0   0   9   0   6   0   0   0   5   0   0   0   0   0   0   0   0   0   0   0   0   0   0   0   0   0   0   0   0  11 95 91 85 84 82 80 76 75 74 73 72 
   7   0   7   0   0   0   0  10   0   0   0   7   0   8   0   0   0   0   0   0   0   0   0   0   0   0   0   0   0   0   0  10 97 87 85 84 82 81 80 79 75 72 
   4   0   0   0   0   0   7   8   0  10   0   8   0   0   9   0   0   0   0   0   7   0   0   0   0   0   0   7   0   6   0   7 86 85 77 76 74 73 63 
   6   0   0   0   0   0   0   0   0   0   0   4   0   0   0   0   0   2   0   0   0   0   0   0   0   0   6   0   0   0   0   6 98 89 78 74 72 60 
   3   0   0   0   0   0   0   0   0   0   4   0   0   5   0   0   0   0   0   8   0   0   0   0   0   0   7   0   7   0   0   8 92 89 83 78 77 76 73 68 
   6   0   0   5   0   0   0   0   0   0   0   0   0   0   0   0   0   7   0   0   0   0   6   0   0   0   0   0   0  10   0   8 84 81 79 78 77 75 72 68 
  10   0   0   6   0   0   0   0   0   0   0   0   0   0   0   6   0   0   0   0   0   0   7   6   0   0   0   0   0   0   0   7 87 84 82 81 79 75 72 
   5   0   0   6   0   0   0   6   0   0   0   0   0   0   0   0   0   0   0   0   0   0   0   0   0   0   0   0   0   0   3   6 95 81 78 76 73 72 
   7   0   0   7   0   4   0   0   0   0   0   0   0   5   0   0   0   0   9   0   0   0   0   0   0   6   0   0   4   0   0   6 85 84 76 75 73 72 
   1   0   0   0   0   0   0   0   0   0   0   0   0   0   0   0   0   0   0   0   0   6   0   0   0   0   0   0   0   0   0   6 88 85 84 80 76 74 
   9   0   0   0   0   0   0   0   0   0   0   0   0   0   0   0   0   7   9   0   0   0   0   0   0   0   0   0   0   0   0   6 89 88 87 74 73 72 
   8   0   0   0   0   0   0   0   0   0   0   0   0   5   0   0   0   6   7   0   2   0   0   0   0   0   0   0   0   0   0   5 91 79 78 76 74 
   1   0   0   0   0   0   0   0   0   7   0   0   0   0   0  10   0   0   0   0   0   6   0   0   0   0   0   9   0   0   0   4 83 80 77 73 
  10   0   0   7   0   0   9   5   0   0   0   0   0  10   0   0   0   0   0   7   6   0  10   0   0   5   0   0   0   0   0   4 91 79 77 75 
   1   0   0   0   6   0   0   0   0   0   0   0   0   0   0   0   0   0   0   0   7   4   0   0   9   0   0   0   0   0   0   4 96 78 76 73 
   1   0   0   0   0   0   0   0   0   0   0   0   7   0   0   0   0   0   0   0   0   0   0   0   0   4   0   0   0   0   0   3 81 80 72 
   4   0   0   0   0   0   0   0   0   5   0   0   0   6   0   0   0   0   0   0   0   0   0   0   0   0   0   0   0   0   0   3 83 78 77 
   8   0   0   0   0   0   0   0   0   0   0   0   0   0   0   0   0   0   0   0   0   0   0   0   0   0   0   0   0   0   8   3 79 75 73 
   6   0   0   0   0   0   0   0   0   0   0   0   0   0   0   0   0   0   0   5   0   0   0   0   0   0   0   0   0   0   0   3 91 75 72 
   1   0   0   0   0   0   0   0   0   0   0   0   0   0   0   0   0   0   7   0   0   0   6   0   0   0   0   0   0   0   0   2 78 74 
   8   0   0   0   0   0   0   0   0   0   0   0   0   7   0   0   0   0   7   0   0   0   0   0   0   0   0   5   0   0   0   1 74 
   2   6   0   0   4   0   0   0   0   0   0   0   0   0   0   0   0   0   0   0   0   0   0   6   0   0   0   7   0   0   0   1 72 
   8   7   0   0   0   0   0   0   0   0   0   0   9   0   5   0   0   0   0   0   7   0   0   7   0   0   0   0   0   3   0   1 73 
   9   0   0  10   0   6   0   0   0   0   0   0   0   9   0   0   0   3   0   0   0   0   0   7   0   0   0   8   0   0   9   1 75 
   2   0   0   0  10   0   0   0   0   8   0   0   0   0   0   0   0   0   0   0   0   0   9   0   0   0   0   0   0   0   6   1 102
   7   0   0   0   0   0   0   0   0   9   0   0   0   0   0   0   0   0   0   0   7   0   7   0   0   0   0   0   0   0   0   1 102
   7   0   7   0   0   0   3   0   0   0   0   0   0   0   4   5   0   0   0   0   0   0   0   0   0   0   0   0   0   0   0   1 102
   5   0   0   0   0   0   5   7   4   0   0   0   0   0   0   0   0   0   0   0   0   0   0   0   0   0   0   8   0   6   0   1 102
   2   0   0   0   0   0   0   0   0   6   6   0   9   0   0   0   0   0   4   0   0   0   0   0   0   5   0   0   0   0   0   1 102
  10   0   0   0   0   0   0   0   8   2   0   5   4   0   0   0   0   0   0   0   0   0   0   0   0   0   9   0   0   0   0   1 102
   1   0   0   0   0   0   0   0   0   0   0   0   0   0   0   0   0   0   0   0   0   0   0   0   0   0   0   0   0   0   0   1 102
   1  10   0   3   8   0   0   0   0   0   0   0   0   0   0   0   0   0   0   0   0   5   6   0   0   0   0   0   0  10   0   1 102
   3   0   0   0   6   8   0   0   7   0   0   0   0   0   0   0   0   0   3   7   0   0   0   9   0   8   0   0   0   0   0   1 102
   7   0   0   0   0   0   0   0   0   6   0   0   0   0   0   0   0   0   0   0   0   0   0   0   0   0   8   0   0   0   0   1 102
  10   0   0   0   0   0   0   0   0   0   0   0   0   0   0   0   9   0   0   6   0   0   0   0   7   0   0   0   0   0   7   1 102
   7   0   7   0   7   0   0   0   0   0   0   3   0   0   0   0   0   4   0   0   0   6   0   0   0   0   0   0   0   0   0   1 102
   5   0   0   0   0   0   0   0   0   0   0   0   0   0   3   0   0   0   0   0   0   0   0   0   9   0   0   0   6   0   0   1 102
   4   0   0   0   5   0   0   0   0   0   0   0   0   0   9   0   0   0   3   0   0   7   3   0   0   0   0   0   4   0   6   1 102
   1   0   0   0   0   0   0   6   0   0   0   0   0   0   8   0   0   0   0   0   0   0   3   0   0   0   0   0   0   0   0   1 102
   7   0   0   0   0   0   0   0   0   0   0   0   0   0   0   0   0   0   0   0   0   0   0   0   0   0   9   3   0   0   0   1 102
   4   0   0   0   0   0   0   0   6   0   0   0   0   0   0   0   0   0   0   0   8   0   0   0   0   0   0   0   0   0   0   1 102
   2   0   0   0   0   0   0   0   0   0   0   0   0   0   0   0   0   0   0   0   0   0   0   0   0   0   0   0   7   0   0   1 102
   5   0   0   0   0   0   0   0   4   0   0   0   0   3   0   8   0   0   0   0   7   0   0   0   0   0   0   0   0   0   0   1 102
   2   0   0   0   0   0   0   0   0   0   0   0   0   0   4   0   0   9   0   0   0   0   0   0   0   0   0   0   0   0   0   1 102
   6   0   0   0   0   0   0   0   0   0   0   0   0   0   0   0  10   0   0   0   0   0   7   0   0   0   0   0   0   0   0   1 102
   8   0   0   0   0   0   0   6   0   0   0   0   5   0   0   0   9   0   8   0   0   0   0   0   0   0   0   0   0   0   0   1 102
   9   0   0   0   0   0   0   0   0   0   0   0   0   0   0   0   0   5   0  10   0   0   0   0   0   0   0   0   0   0   0   1 102
   9   0   0   7   0   8   0   9   0   0   0   0   0   4   0   0   0   7   0   0   0   0   0   0   0   0   0   0   0   0   6   1 102
   2   8   0   0   0   0   0   0   0   0   0   0   0   0   0   0   0   0   0   0   0   0   0   0   0   0   0   0   0   0   0   1 102
   7   0   0   7   0   7   0   0   0   0   0   0   0   0   0   0   0   4   0   0   0   8   0   0   0   0   0   4   0   0   0   1 102
   1   6   0   0   0   0   4   0   0   0   0   0   0   9   0   5   2   0   0   0   0   0   0   0   0   0   0   7   3   0   3   1 102
   3   0   0   0   0   0   0   6   0   0   8   0   0   0   0   0   0  10   0   0   0   0   0   0   0   0   0   0   0   0   0   1 102
   8   0   0   0   0   0   0   0   0   0   8   0   0   0   0   0   0  10   0   0   0   0   0   0   0   0   0   7   0   0   0   1 102
   7   0   0   0   0   0   0   0   8   0   0   0   0   0   0   0   0   0   0   0   0   0   0   0   0   7   6   0  10   0   9   1 102
   0   0   0   0   0   0   0   0   0   0   0   0   0   0   0   0   0   0   0   0   0   0   0   0   0   0   0   0   0   0   0   0 
